5 5
2 15 1 7 3 17 0 86 4 86
0 64 2 12 4 82 3 56 1 46
1 47 4 79 2 16 3 69 0 2
4 92 3 54 0 27 2 31 1 41
0 36 4 47 3 43 2 65 1 50
-1
0 2 3 4 5
0 2 4 5
0 2 5
0 2 3 5
0 1 3 4 5
-2
28 53 138 279
108 307 339
175 246
225 195 275
54 172 212 282

387 8
20 5 17 3 14
1 10 19 9 24
0 6 18 23 12
2 16 22 8 13
15 21 7 11 4
